c File: instances/22_0.45_1.col
c
c Description: Random graph of size 22 vertices and P(0.44999999999999996) of edges between any two vertices.
p col 22 231
e 1 3
e 1 4
e 1 5
e 1 9
e 1 13
e 1 14
e 1 16
e 1 17
e 1 19
e 2 4
e 2 5
e 2 6
e 2 7
e 2 9
e 2 11
e 2 13
e 2 14
e 2 15
e 2 16
e 2 18
e 2 19
e 3 6
e 3 7
e 3 8
e 3 10
e 3 12
e 3 14
e 3 19
e 3 20
e 3 22
e 4 5
e 4 6
e 4 8
e 4 11
e 4 15
e 4 16
e 4 19
e 4 21
e 4 22
e 5 6
e 5 7
e 5 8
e 5 9
e 5 12
e 5 13
e 5 18
e 5 19
e 6 10
e 6 12
e 6 13
e 6 16
e 6 17
e 6 18
e 6 21
e 6 22
e 7 8
e 7 11
e 7 12
e 7 14
e 7 15
e 7 17
e 7 18
e 7 19
e 8 10
e 8 12
e 8 16
e 8 17
e 9 16
e 9 19
e 10 13
e 10 14
e 10 20
e 11 12
e 11 14
e 11 15
e 11 17
e 11 19
e 11 20
e 11 22
e 12 13
e 12 14
e 12 15
e 12 21
e 12 22
e 13 14
e 13 15
e 13 16
e 13 18
e 13 19
e 13 21
e 13 22
e 14 17
e 14 22
e 15 18
e 16 17
e 16 18
e 16 19
e 16 20
e 16 22
e 17 18
e 17 19
e 17 22
e 18 19
e 21 22